(set-logic QF_UF)
(declare-fun A0 () Bool)
(declare-fun A1 () Bool)
(declare-fun A2 () Bool)
(declare-fun A3 () Bool)
(declare-fun A5 () Bool)
(declare-fun A7 () Bool)
(declare-fun A8 () Bool)
(declare-fun A10 () Bool)
(declare-fun A11 () Bool)
(declare-fun A13 () Bool)
(declare-fun A14 () Bool)
(declare-fun A15 () Bool)
(declare-fun A16 () Bool)
(declare-fun A17 () Bool)
(declare-fun A18 () Bool)
(declare-fun A19 () Bool)
(declare-fun A20 () Bool)
(declare-fun A21 () Bool)
(declare-fun A22 () Bool)
(declare-fun A23 () Bool)
(declare-fun A24 () Bool)
(assert (let ((.def_0 (not A2))) (let ((.def_1 (and A21 .def_0))) (let ((.def_2 (not .def_1))) (let ((.def_3 (not A17))) (let ((.def_4 (and A20 .def_3))) (let ((.def_5 (and .def_4 .def_2))) (let ((.def_6 (not .def_5))) (let ((.def_7 (not A18))) (let ((.def_8 (and A13 .def_7))) (let ((.def_9 (not A22))) (let ((.def_10 (and .def_9 A8))) (let ((.def_11 (and .def_10 .def_8))) (let ((.def_12 (and .def_11 .def_6))) (let ((.def_13 (not A23))) (let ((.def_14 (or A16 .def_13))) (let ((.def_15 (and A16 A3))) (let ((.def_16 (not .def_15))) (let ((.def_17 (or .def_16 .def_14))) (let ((.def_18 (or A10 A10))) (let ((.def_19 (not .def_18))) (let ((.def_20 (not A20))) (let ((.def_21 (and .def_20 .def_13))) (let ((.def_22 (not .def_21))) (let ((.def_23 (or .def_22 .def_19))) (let ((.def_24 (or .def_23 .def_17))) (let ((.def_25 (not .def_24))) (let ((.def_26 (or .def_25 .def_12))) (let ((.def_27 (not A11))) (let ((.def_28 (and A2 .def_27))) (let ((.def_29 (or .def_27 A0))) (let ((.def_30 (not .def_29))) (let ((.def_31 (or .def_30 .def_28))) (let ((.def_32 (not .def_31))) (let ((.def_33 (not A3))) (let ((.def_34 (or A23 .def_33))) (let ((.def_35 (and A15 A5))) (let ((.def_36 (and .def_35 .def_34))) (let ((.def_37 (and .def_36 .def_32))) (let ((.def_38 (and A2 A2))) (let ((.def_39 (not A7))) (let ((.def_40 (and A21 .def_39))) (let ((.def_41 (not .def_40))) (let ((.def_42 (= .def_41 .def_38))) (let ((.def_43 (or A20 A11))) (let ((.def_44 (or .def_9 A0))) (let ((.def_45 (and .def_44 .def_43))) (let ((.def_46 (not .def_45))) (let ((.def_47 (or .def_46 .def_42))) (let ((.def_48 (and .def_47 .def_37))) (let ((.def_49 (not .def_48))) (let ((.def_50 (and .def_49 .def_26))) (let ((.def_51 (not .def_50))) (let ((.def_52 (not A1))) (let ((.def_53 (or .def_33 .def_52))) (let ((.def_54 (not A5))) (let ((.def_55 (and A22 .def_54))) (let ((.def_56 (and .def_55 .def_53))) (let ((.def_57 (not .def_56))) (let ((.def_58 (and A24 .def_20))) (let ((.def_59 (not A15))) (let ((.def_60 (and .def_59 .def_13))) (let ((.def_61 (not .def_60))) (let ((.def_62 (and .def_61 .def_58))) (let ((.def_63 (not .def_62))) (let ((.def_64 (and .def_63 .def_57))) (let ((.def_65 (not A8))) (let ((.def_66 (= .def_65 .def_0))) (let ((.def_67 (= .def_33 .def_54))) (let ((.def_68 (not .def_67))) (let ((.def_69 (and .def_68 .def_66))) (let ((.def_70 (and A23 .def_27))) (let ((.def_71 (not .def_70))) (let ((.def_72 (not A10))) (let ((.def_73 (or A17 .def_72))) (let ((.def_74 (= .def_73 .def_71))) (let ((.def_75 (and .def_74 .def_69))) (let ((.def_76 (and .def_75 .def_64))) (let ((.def_77 (not A24))) (let ((.def_78 (not A0))) (let ((.def_79 (or .def_78 .def_77))) (let ((.def_80 (and A22 A22))) (let ((.def_81 (or .def_80 .def_79))) (let ((.def_82 (not A19))) (let ((.def_83 (and A10 .def_82))) (let ((.def_84 (not .def_83))) (let ((.def_85 (or A21 .def_13))) (let ((.def_86 (not .def_85))) (let ((.def_87 (and .def_86 .def_84))) (let ((.def_88 (or .def_87 .def_81))) (let ((.def_89 (not .def_88))) (let ((.def_90 (and .def_20 A19))) (let ((.def_91 (not A14))) (let ((.def_92 (and .def_72 .def_91))) (let ((.def_93 (or .def_92 .def_90))) (let ((.def_94 (or .def_54 .def_78))) (let ((.def_95 (or .def_13 A23))) (let ((.def_96 (not .def_95))) (let ((.def_97 (= .def_96 .def_94))) (let ((.def_98 (and .def_97 .def_93))) (let ((.def_99 (or .def_98 .def_89))) (let ((.def_100 (not .def_99))) (let ((.def_101 (or .def_100 .def_76))) (let ((.def_102 (or .def_101 .def_51))) .def_102))))))))))))))))))))))))))))))))))))))))))))))))))))))))))))))))))))))))))))))))))))))))))))))))))))))))
(check-sat)
